NAME : portcgen-18-17
COMMENT : portcgen N=18, seed=17
TYPE : TSP
DIMENSION : 18
EDGE_WEIGHT_TYPE : EUC_2D
NODE_COORD_SECTION
1 509288 -253249
2 -141357 -137190
3 397747 244572
4 283501 -106374
5 343191 188701
6 -74218 502343
7 534564 221477
8 -305005 430909
9 167765 212591
10 1046 -291410
11 -164881 225043
12 277771 273828
13 -127174 101311
14 -69849 -244057
15 -361284 -311785
16 91844 -406610
17 -2300 100831
18 -387341 -85549
